100 29
10 62 45 7 65 83 93 8 86 68 21
3 93 60 24
4 17 28 65 66
10 26 18 54 64 38 56 11 89 98 70
2 22 51
9 6 82 7 8 10 12 40 99 41
3 29 86 13
9 44 71 93 95 68 59 31 32 25
9 4 65 92 57 48 66 88 33 16
4 46 38 31 51
9 26 64 82 55 29 47 66 70 16
5 80 63 37 69 25
10 17 26 90 36 56 57 87 97 12 40
8 26 83 75 95 68 12 13 41
3 83 13 14
9 17 72 91 64 68 96 22 60 52
5 85 77 30 98 33
7 18 82 91 57 67 30 99
5 72 28 19 65 57
6 53 17 80 28 59 41
8 28 77 30 41 1 33 60 25
10 17 81 19 7 74 92 59 69 79 50
11 5 18 54 56 74 59 69 87 21 40 15
10 90 81 57 68 59 87 96 98 70 16
8 72 82 65 47 29 58 11 30
3 27 7 86
4 62 89 41 3
10 17 46 47 48 58 10 86 79 88 70
8 26 17 73 55 100 49 68 34
